(set-info :source |printed by MathSAT|)
(declare-fun call_mesi.ite14 () Int)
(declare-fun _OK_ () Bool)
(declare-fun call_mesi.ite5 () Int)
(declare-fun call_mesi.exclusive_me () Int)
(declare-fun call_mesi.ite6 () Int)
(declare-fun call_mesi.ite3 () Int)
(declare-fun call_mesi.shared_me () Int)
(declare-fun call_mesi.ite15 () Int)
(declare-fun call_mesi.ite22 () Int)
(declare-fun call_mesi.ite7 () Int)
(declare-fun call_mesi.flby () Int)
(declare-fun call_mesi.ite16 () Int)
(declare-fun call_mesi.ite8 () Int)
(declare-fun call_mesi.ite2 () Int)
(declare-fun modified_me () Int)
(declare-fun call_mesi.ite9 () Int)
(declare-fun call_mesi.ite31 () Int)
(declare-fun call_mesi.ite24 () Int)
(declare-fun call_mesi.ite () Int)
(declare-fun call_excludes4.excludes () Bool)
(declare-fun call_mesi.ite29 () Int)
(declare-fun call_mesi.ite32 () Int)
(declare-fun call_Sofar.Sofar () Bool)
(declare-fun call_mesi.ite20 () Int)
(declare-fun call_mesi.ite11 () Int)
(declare-fun call_mesi.ite27 () Int)
(declare-fun call_mesi.ite18 () Int)
(declare-fun call_mesi.ite30 () Int)
(declare-fun call_mesi.ite4 () Int)
(declare-fun shared_me () Int)
(declare-fun env () Bool)
(declare-fun invalid_me () Int)
(declare-fun call_mesi.ite19 () Int)
(declare-fun call_mesi.ite26 () Int)
(declare-fun call_mesi.ite10 () Int)
(declare-fun param_etat_me3 () Bool)
(declare-fun call_mesi.garde_me4 () Bool)
(declare-fun call_mesi.ite23 () Int)
(declare-fun call_mesi.flby2 () Int)
(declare-fun call_mesi.ite13 () Int)
(declare-fun call_mesi.ite21 () Int)
(declare-fun call_mesi.modified_me () Int)
(declare-fun call_mesi.ite17 () Int)
(declare-fun call_Sofar.flby () Bool)
(declare-fun call_mesi.garde_me3 () Bool)
(declare-fun call_mesi.ite25 () Int)
(declare-fun call_mesi.invalid_me () Int)
(declare-fun param_etat_me1 () Bool)
(declare-fun call_mesi.garde_me1 () Bool)
(declare-fun param_etat_me2 () Bool)
(declare-fun exclusive_me () Int)
(declare-fun call_mesi.ite12 () Int)
(declare-fun call_mesi.flby3 () Int)
(declare-fun call_mesi.flby4 () Int)
(declare-fun param_etat_me4 () Bool)
(declare-fun call_mesi.ite28 () Int)
(define-fun .def_797 () Bool (= call_Sofar.flby call_Sofar.Sofar))
(define-fun .def_792 () Bool (and param_etat_me4 param_etat_me3))
(define-fun .def_787 () Bool (and param_etat_me1 param_etat_me2))
(define-fun .def_786 () Bool (and param_etat_me3 param_etat_me1))
(define-fun .def_788 () Bool (or .def_786 .def_787))
(define-fun .def_785 () Bool (and param_etat_me4 param_etat_me1))
(define-fun .def_789 () Bool (or .def_785 .def_788))
(define-fun .def_784 () Bool (and param_etat_me3 param_etat_me2))
(define-fun .def_790 () Bool (or .def_784 .def_789))
(define-fun .def_783 () Bool (and param_etat_me4 param_etat_me2))
(define-fun .def_791 () Bool (or .def_783 .def_790))
(define-fun .def_793 () Bool (or .def_791 .def_792))
(define-fun .def_794 () Bool (not .def_793))
(define-fun .def_795 () Bool (= call_excludes4.excludes .def_794))
(define-fun .def_781 () Bool (= call_mesi.flby4 call_mesi.invalid_me))
(define-fun .def_779 () Bool (= call_mesi.flby3 call_mesi.shared_me))
(define-fun .def_777 () Bool (= call_mesi.flby2 call_mesi.exclusive_me))
(define-fun .def_775 () Bool (= call_mesi.flby call_mesi.modified_me))
(define-fun .def_771 () Bool (= call_mesi.ite30 call_mesi.ite31))
(define-fun .def_772 () Bool (or param_etat_me2 .def_771))
(define-fun .def_768 () Bool (= call_mesi.ite31 call_mesi.ite26))
(define-fun .def_750 () Bool (not param_etat_me2))
(define-fun .def_769 () Bool (or .def_750 .def_768))
(define-fun .def_764 () Bool (= call_mesi.ite22 call_mesi.ite23))
(define-fun .def_765 () Bool (or param_etat_me2 .def_764))
(define-fun .def_761 () Bool (= call_mesi.ite23 call_mesi.ite18))
(define-fun .def_762 () Bool (or .def_750 .def_761))
(define-fun .def_757 () Bool (= call_mesi.ite14 call_mesi.ite15))
(define-fun .def_758 () Bool (or param_etat_me2 .def_757))
(define-fun .def_754 () Bool (= call_mesi.ite15 call_mesi.ite10))
(define-fun .def_755 () Bool (or .def_750 .def_754))
(define-fun .def_749 () Bool (= call_mesi.ite7 call_mesi.ite2))
(define-fun .def_751 () Bool (or .def_749 .def_750))
(define-fun .def_745 () Bool (= call_mesi.ite6 call_mesi.ite7))
(define-fun .def_747 () Bool (or .def_745 param_etat_me2))
(define-fun .def_752 () Bool (and .def_747 .def_751))
(define-fun .def_756 () Bool (and .def_752 .def_755))
(define-fun .def_759 () Bool (and .def_756 .def_758))
(define-fun .def_763 () Bool (and .def_759 .def_762))
(define-fun .def_766 () Bool (and .def_763 .def_765))
(define-fun .def_770 () Bool (and .def_766 .def_769))
(define-fun .def_773 () Bool (and .def_770 .def_772))
(define-fun .def_741 () Bool (= call_mesi.ite32 call_mesi.ite31))
(define-fun .def_742 () Bool (or param_etat_me1 .def_741))
(define-fun .def_737 () Bool (= call_mesi.ite25 call_mesi.ite32))
(define-fun .def_715 () Bool (not param_etat_me1))
(define-fun .def_738 () Bool (or .def_715 .def_737))
(define-fun .def_732 () Bool (= call_mesi.ite24 call_mesi.ite23))
(define-fun .def_733 () Bool (or param_etat_me1 .def_732))
(define-fun .def_728 () Bool (= call_mesi.ite17 call_mesi.ite24))
(define-fun .def_729 () Bool (or .def_715 .def_728))
(define-fun .def_723 () Bool (= call_mesi.ite16 call_mesi.ite15))
(define-fun .def_724 () Bool (or param_etat_me1 .def_723))
(define-fun .def_719 () Bool (= call_mesi.ite9 call_mesi.ite16))
(define-fun .def_720 () Bool (or .def_715 .def_719))
(define-fun .def_714 () Bool (= call_mesi.ite call_mesi.ite8))
(define-fun .def_716 () Bool (or .def_714 .def_715))
(define-fun .def_711 () Bool (= call_mesi.ite8 call_mesi.ite7))
(define-fun .def_713 () Bool (or .def_711 param_etat_me1))
(define-fun .def_717 () Bool (and .def_713 .def_716))
(define-fun .def_721 () Bool (and .def_717 .def_720))
(define-fun .def_725 () Bool (and .def_721 .def_724))
(define-fun .def_730 () Bool (and .def_725 .def_729))
(define-fun .def_734 () Bool (and .def_730 .def_733))
(define-fun .def_739 () Bool (and .def_734 .def_738))
(define-fun .def_743 () Bool (and .def_739 .def_742))
(define-fun .def_707 () Bool (= env call_Sofar.Sofar))
(define-fun .def_704 () Bool (= invalid_me call_mesi.invalid_me))
(define-fun .def_700 () Bool (= shared_me call_mesi.shared_me))
(define-fun .def_697 () Bool (= exclusive_me call_mesi.exclusive_me))
(define-fun .def_693 () Bool (= modified_me call_mesi.modified_me))
(define-fun .def_687 () Bool (= call_mesi.ite29 call_mesi.ite30))
(define-fun .def_688 () Bool (or param_etat_me3 .def_687))
(define-fun .def_684 () Bool (= call_mesi.ite27 call_mesi.ite30))
(define-fun .def_665 () Bool (not param_etat_me3))
(define-fun .def_685 () Bool (or .def_665 .def_684))
(define-fun .def_679 () Bool (= call_mesi.ite21 call_mesi.ite22))
(define-fun .def_680 () Bool (or param_etat_me3 .def_679))
(define-fun .def_676 () Bool (= call_mesi.ite19 call_mesi.ite22))
(define-fun .def_677 () Bool (or .def_665 .def_676))
(define-fun .def_672 () Bool (= call_mesi.ite13 call_mesi.ite14))
(define-fun .def_673 () Bool (or param_etat_me3 .def_672))
(define-fun .def_669 () Bool (= call_mesi.ite11 call_mesi.ite14))
(define-fun .def_670 () Bool (or .def_665 .def_669))
(define-fun .def_664 () Bool (= call_mesi.ite3 call_mesi.ite6))
(define-fun .def_666 () Bool (or .def_664 .def_665))
(define-fun .def_661 () Bool (= call_mesi.ite5 call_mesi.ite6))
(define-fun .def_663 () Bool (or .def_661 param_etat_me3))
(define-fun .def_667 () Bool (and .def_663 .def_666))
(define-fun .def_671 () Bool (and .def_667 .def_670))
(define-fun .def_674 () Bool (and .def_671 .def_673))
(define-fun .def_678 () Bool (and .def_674 .def_677))
(define-fun .def_681 () Bool (and .def_678 .def_680))
(define-fun .def_686 () Bool (and .def_681 .def_685))
(define-fun .def_689 () Bool (and .def_686 .def_688))
(define-fun .def_657 () Bool (<= 0 shared_me))
(define-fun .def_655 () Bool (not env))
(define-fun .def_658 () Bool (or .def_655 .def_657))
(define-fun .def_659 () Bool (= _OK_ .def_658))
(define-fun .def_690 () Bool (and .def_659 .def_689))
(define-fun .def_694 () Bool (and .def_690 .def_693))
(define-fun .def_698 () Bool (and .def_694 .def_697))
(define-fun .def_701 () Bool (and .def_698 .def_700))
(define-fun .def_705 () Bool (and .def_701 .def_704))
(define-fun .def_708 () Bool (and .def_705 .def_707))
(define-fun .def_744 () Bool (and .def_708 .def_743))
(define-fun .def_774 () Bool (and .def_744 .def_773))
(define-fun .def_776 () Bool (and .def_774 .def_775))
(define-fun .def_778 () Bool (and .def_776 .def_777))
(define-fun .def_780 () Bool (and .def_778 .def_779))
(define-fun .def_782 () Bool (and .def_780 .def_781))
(define-fun .def_796 () Bool (and .def_782 .def_795))
(define-fun .def_798 () Bool (and .def_796 .def_797))
(define-fun .def_651 () Bool (= call_excludes4.excludes call_Sofar.flby))
(define-fun .def_647 () Bool (= call_mesi.flby4 3))
(define-fun .def_644 () Bool (= call_mesi.flby3 0))
(define-fun .def_641 () Bool (= call_mesi.flby2 0))
(define-fun .def_638 () Bool (= call_mesi.flby 0))
(define-fun .def_633 () Bool (= call_mesi.ite20 0))
(define-fun .def_628 () Bool (not call_mesi.garde_me4))
(define-fun .def_634 () Bool (or .def_628 .def_633))
(define-fun .def_630 () Bool (= call_mesi.ite4 0))
(define-fun .def_631 () Bool (or .def_628 .def_630))
(define-fun .def_626 () Bool (= call_mesi.ite12 1))
(define-fun .def_629 () Bool (or .def_626 .def_628))
(define-fun .def_632 () Bool (and .def_629 .def_631))
(define-fun .def_635 () Bool (and .def_632 .def_634))
(define-fun .def_622 () Bool (= call_mesi.ite19 0))
(define-fun .def_615 () Bool (not call_mesi.garde_me3))
(define-fun .def_623 () Bool (or .def_615 .def_622))
(define-fun .def_618 () Bool (= call_mesi.ite3 0))
(define-fun .def_619 () Bool (or .def_615 .def_618))
(define-fun .def_613 () Bool (= call_mesi.ite11 1))
(define-fun .def_616 () Bool (or .def_613 .def_615))
(define-fun .def_620 () Bool (and .def_616 .def_619))
(define-fun .def_624 () Bool (and .def_620 .def_623))
(define-fun .def_608 () Bool (= call_mesi.ite 0))
(define-fun .def_605 () Bool (not call_mesi.garde_me1))
(define-fun .def_609 () Bool (or .def_605 .def_608))
(define-fun .def_603 () Bool (= call_mesi.ite9 0))
(define-fun .def_606 () Bool (or .def_603 .def_605))
(define-fun .def_610 () Bool (and .def_606 .def_609))
(define-fun .def_599 () Bool (= call_mesi.ite28 call_mesi.ite29))
(define-fun .def_585 () Bool (not param_etat_me4))
(define-fun .def_600 () Bool (or .def_585 .def_599))
(define-fun .def_594 () Bool (= call_mesi.ite20 call_mesi.ite21))
(define-fun .def_595 () Bool (or .def_585 .def_594))
(define-fun .def_589 () Bool (= call_mesi.ite4 call_mesi.ite5))
(define-fun .def_590 () Bool (or .def_585 .def_589))
(define-fun .def_583 () Bool (= call_mesi.ite12 call_mesi.ite13))
(define-fun .def_586 () Bool (or .def_583 .def_585))
(define-fun .def_591 () Bool (and .def_586 .def_590))
(define-fun .def_596 () Bool (and .def_591 .def_595))
(define-fun .def_601 () Bool (and .def_596 .def_600))
(define-fun .def_611 () Bool (and .def_601 .def_610))
(define-fun .def_625 () Bool (and .def_611 .def_624))
(define-fun .def_636 () Bool (and .def_625 .def_635))
(define-fun .def_639 () Bool (and .def_636 .def_638))
(define-fun .def_642 () Bool (and .def_639 .def_641))
(define-fun .def_645 () Bool (and .def_642 .def_644))
(define-fun .def_648 () Bool (and .def_645 .def_647))
(define-fun .def_652 () Bool (and .def_648 .def_651))
(define-fun .def_799 () Bool (and .def_652 .def_798))
(assert .def_799)
